53
1 0 11
2 0 12
2 1 15
3 0 14
3 1 16
3 2 8
4 0 16
4 1 5
4 2 4
4 3 2
5 0 16
5 1 3
5 2 16
5 3 5
5 4 9
6 0 6
6 1 12
6 2 14
6 3 10
6 4 2
6 5 4
7 0 1
7 1 4
7 2 8
7 3 13
7 4 6
7 5 13
7 6 8
8 0 17
8 1 7
8 2 10
8 3 11
8 4 16
8 5 14
8 6 2
8 7 6
9 0 4
9 1 17
9 2 9
9 3 11
9 4 11
9 5 13
9 6 11
9 7 2
9 8 6
10 0 7
10 1 14
10 2 11
10 3 2
10 4 11
10 5 17
10 6 7
10 7 12
10 8 5
10 9 15
11 0 2
11 1 6
11 2 9
11 3 8
11 4 3
11 5 16
11 6 9
11 7 6
11 8 5
11 9 11
11 10 13
12 0 9
12 1 4
12 2 1
12 3 17
12 4 5
12 5 11
12 6 11
12 7 4
12 8 11
12 9 17
12 10 5
12 11 15
13 0 4
13 1 11
13 2 10
13 3 9
13 4 17
13 5 14
13 6 1
13 7 4
13 8 8
13 9 17
13 10 2
13 11 11
13 12 8
14 0 6
14 1 12
14 2 11
14 3 17
14 4 4
14 5 9
14 6 11
14 7 7
14 8 15
14 9 11
14 10 9
14 11 14
14 12 11
14 13 10
15 0 16
15 1 13
15 2 1
15 3 2
15 4 8
15 5 11
15 6 6
15 7 6
15 8 2
15 9 16
15 10 2
15 11 3
15 12 3
15 13 8
15 14 9
16 0 12
16 1 15
16 2 16
16 3 9
16 4 11
16 5 5
16 6 16
16 7 10
16 8 10
16 9 13
16 10 8
16 11 11
16 12 3
16 13 6
16 14 11
16 15 11
17 0 15
17 1 12
17 2 2
17 3 2
17 4 15
17 5 16
17 6 1
17 7 14
17 8 9
17 9 15
17 10 8
17 11 9
17 12 10
17 13 1
17 14 6
17 15 2
17 16 13
18 0 12
18 1 9
18 2 3
18 3 2
18 4 12
18 5 17
18 6 16
18 7 6
18 8 11
18 9 15
18 10 12
18 11 5
18 12 4
18 13 3
18 14 2
18 15 5
18 16 7
18 17 5
19 0 10
19 1 1
19 2 8
19 3 17
19 4 11
19 5 9
19 6 12
19 7 14
19 8 4
19 9 14
19 10 8
19 11 8
19 12 15
19 13 9
19 14 2
19 15 8
19 16 10
19 17 11
19 18 10
20 0 7
20 1 10
20 2 5
20 3 6
20 4 11
20 5 10
20 6 3
20 7 15
20 8 14
20 9 10
20 10 2
20 11 7
20 12 15
20 13 13
20 14 1
20 15 10
20 16 10
20 17 11
20 18 15
20 19 10
21 0 2
21 1 5
21 2 6
21 3 1
21 4 9
21 5 6
21 6 11
21 7 15
21 8 15
21 9 6
21 10 3
21 11 10
21 12 4
21 13 9
21 14 9
21 15 12
21 16 8
21 17 15
21 18 8
21 19 6
21 20 7
22 0 5
22 1 7
22 2 8
22 3 1
22 4 11
22 5 2
22 6 10
22 7 15
22 8 9
22 9 12
22 10 1
22 11 7
22 12 16
22 13 16
22 14 6
22 15 5
22 16 3
22 17 13
22 18 12
22 19 15
22 20 17
22 21 2
23 0 4
23 1 8
23 2 15
23 3 4
23 4 17
23 5 2
23 6 12
23 7 13
23 8 17
23 9 1
23 10 15
23 11 16
23 12 6
23 13 4
23 14 10
23 15 10
23 16 8
23 17 11
23 18 11
23 19 12
23 20 2
23 21 13
23 22 7
24 0 12
24 1 4
24 2 5
24 3 11
24 4 17
24 5 3
24 6 12
24 7 15
24 8 10
24 9 4
24 10 15
24 11 13
24 12 16
24 13 14
24 14 11
24 15 10
24 16 11
24 17 11
24 18 7
24 19 1
24 20 7
24 21 4
24 22 1
24 23 17
25 0 3
25 1 6
25 2 16
25 3 7
25 4 5
25 5 16
25 6 8
25 7 13
25 8 5
25 9 12
25 10 8
25 11 8
25 12 2
25 13 4
25 14 12
25 15 10
25 16 9
25 17 8
25 18 11
25 19 11
25 20 6
25 21 11
25 22 3
25 23 3
25 24 10
26 0 16
26 1 15
26 2 2
26 3 14
26 4 14
26 5 7
26 6 14
26 7 14
26 8 1
26 9 16
26 10 2
26 11 13
26 12 2
26 13 6
26 14 4
26 15 3
26 16 11
26 17 13
26 18 7
26 19 8
26 20 16
26 21 16
26 22 11
26 23 13
26 24 7
26 25 3
27 0 6
27 1 11
27 2 7
27 3 10
27 4 9
27 5 9
27 6 5
27 7 14
27 8 15
27 9 4
27 10 10
27 11 13
27 12 6
27 13 1
27 14 2
27 15 6
27 16 13
27 17 11
27 18 12
27 19 11
27 20 17
27 21 7
27 22 3
27 23 14
27 24 14
27 25 6
27 26 4
28 0 15
28 1 5
28 2 6
28 3 15
28 4 6
28 5 8
28 6 15
28 7 2
28 8 2
28 9 3
28 10 14
28 11 2
28 12 8
28 13 16
28 14 6
28 15 10
28 16 3
28 17 16
28 18 4
28 19 2
28 20 7
28 21 4
28 22 10
28 23 14
28 24 5
28 25 17
28 26 4
28 27 10
29 0 10
29 1 8
29 2 16
29 3 5
29 4 12
29 5 1
29 6 11
29 7 11
29 8 13
29 9 2
29 10 11
29 11 13
29 12 1
29 13 9
29 14 5
29 15 16
29 16 7
29 17 14
29 18 7
29 19 3
29 20 11
29 21 7
29 22 7
29 23 9
29 24 17
29 25 7
29 26 11
29 27 3
29 28 5
30 0 6
30 1 1
30 2 17
30 3 3
30 4 17
30 5 14
30 6 7
30 7 13
30 8 6
30 9 6
30 10 5
30 11 14
30 12 10
30 13 11
30 14 12
30 15 8
30 16 12
30 17 10
30 18 14
30 19 6
30 20 4
30 21 6
30 22 9
30 23 1
30 24 17
30 25 15
30 26 5
30 27 16
30 28 11
30 29 6
31 0 12
31 1 7
31 2 4
31 3 9
31 4 13
31 5 3
31 6 15
31 7 12
31 8 12
31 9 2
31 10 5
31 11 15
31 12 9
31 13 12
31 14 16
31 15 13
31 16 9
31 17 9
31 18 16
31 19 3
31 20 15
31 21 12
31 22 14
31 23 1
31 24 7
31 25 9
31 26 14
31 27 15
31 28 7
31 29 2
31 30 8
32 0 1
32 1 7
32 2 14
32 3 4
32 4 12
32 5 6
32 6 13
32 7 12
32 8 16
32 9 8
32 10 5
32 11 4
32 12 5
32 13 1
32 14 16
32 15 11
32 16 17
32 17 9
32 18 12
32 19 8
32 20 11
32 21 6
32 22 7
32 23 16
32 24 10
32 25 14
32 26 8
32 27 9
32 28 3
32 29 11
32 30 9
32 31 2
33 0 16
33 1 16
33 2 14
33 3 7
33 4 9
33 5 16
33 6 12
33 7 3
33 8 7
33 9 5
33 10 2
33 11 6
33 12 13
33 13 4
33 14 4
33 15 9
33 16 16
33 17 8
33 18 16
33 19 3
33 20 14
33 21 12
33 22 5
33 23 3
33 24 17
33 25 11
33 26 11
33 27 3
33 28 16
33 29 7
33 30 11
33 31 5
33 32 3
34 0 1
34 1 7
34 2 10
34 3 6
34 4 1
34 5 14
34 6 10
34 7 14
34 8 3
34 9 15
34 10 8
34 11 5
34 12 12
34 13 11
34 14 15
34 15 11
34 16 4
34 17 11
34 18 3
34 19 12
34 20 16
34 21 1
34 22 3
34 23 15
34 24 2
34 25 8
34 26 8
34 27 17
34 28 17
34 29 4
34 30 14
34 31 1
34 32 12
34 33 1
35 0 3
35 1 14
35 2 3
35 3 15
35 4 6
35 5 16
35 6 11
35 7 13
35 8 11
35 9 5
35 10 1
35 11 15
35 12 12
35 13 17
35 14 8
35 15 1
35 16 5
35 17 1
35 18 10
35 19 11
35 20 17
35 21 7
35 22 14
35 23 2
35 24 17
35 25 17
35 26 9
35 27 16
35 28 7
35 29 5
35 30 3
35 31 3
35 32 15
35 33 8
35 34 9
36 0 15
36 1 1
36 2 9
36 3 3
36 4 9
36 5 15
36 6 7
36 7 6
36 8 7
36 9 16
36 10 13
36 11 4
36 12 2
36 13 3
36 14 3
36 15 14
36 16 3
36 17 2
36 18 6
36 19 3
36 20 14
36 21 4
36 22 9
36 23 11
36 24 2
36 25 1
36 26 1
36 27 1
36 28 1
36 29 3
36 30 3
36 31 12
36 32 2
36 33 12
36 34 11
36 35 17
37 0 2
37 1 10
37 2 1
37 3 16
37 4 10
37 5 6
37 6 13
37 7 11
37 8 17
37 9 8
37 10 3
37 11 1
37 12 3
37 13 16
37 14 6
37 15 16
37 16 12
37 17 13
37 18 5
37 19 14
37 20 1
37 21 14
37 22 1
37 23 1
37 24 1
37 25 4
37 26 1
37 27 3
37 28 10
37 29 10
37 30 13
37 31 8
37 32 10
37 33 8
37 34 1
37 35 3
37 36 14
38 0 1
38 1 1
38 2 10
38 3 17
38 4 13
38 5 3
38 6 6
38 7 15
38 8 5
38 9 17
38 10 1
38 11 3
38 12 10
38 13 6
38 14 9
38 15 6
38 16 10
38 17 16
38 18 2
38 19 17
38 20 3
38 21 1
38 22 1
38 23 11
38 24 15
38 25 2
38 26 1
38 27 5
38 28 2
38 29 5
38 30 15
38 31 10
38 32 6
38 33 17
38 34 5
38 35 13
38 36 3
38 37 9
39 0 5
39 1 4
39 2 6
39 3 3
39 4 8
39 5 2
39 6 16
39 7 2
39 8 7
39 9 10
39 10 9
39 11 4
39 12 10
39 13 15
39 14 5
39 15 12
39 16 15
39 17 14
39 18 7
39 19 6
39 20 14
39 21 17
39 22 9
39 23 9
39 24 17
39 25 17
39 26 17
39 27 11
39 28 1
39 29 7
39 30 1
39 31 12
39 32 10
39 33 17
39 34 2
39 35 17
39 36 5
39 37 14
39 38 15
40 0 10
40 1 5
40 2 2
40 3 1
40 4 9
40 5 11
40 6 9
40 7 17
40 8 5
40 9 17
40 10 5
40 11 1
40 12 6
40 13 1
40 14 4
40 15 16
40 16 15
40 17 9
40 18 7
40 19 8
40 20 8
40 21 14
40 22 14
40 23 7
40 24 14
40 25 14
40 26 1
40 27 3
40 28 2
40 29 16
40 30 7
40 31 16
40 32 9
40 33 9
40 34 11
40 35 1
40 36 14
40 37 1
40 38 6
40 39 4
41 0 7
41 1 8
41 2 10
41 3 11
41 4 13
41 5 2
41 6 2
41 7 6
41 8 11
41 9 14
41 10 17
41 11 17
41 12 2
41 13 17
41 14 10
41 15 15
41 16 8
41 17 15
41 18 9
41 19 4
41 20 12
41 21 9
41 22 14
41 23 14
41 24 10
41 25 17
41 26 13
41 27 15
41 28 6
41 29 11
41 30 13
41 31 9
41 32 10
41 33 9
41 34 9
41 35 10
41 36 11
41 37 15
41 38 16
41 39 6
41 40 9
42 0 9
42 1 13
42 2 11
42 3 16
42 4 15
42 5 5
42 6 5
42 7 2
42 8 13
42 9 16
42 10 17
42 11 13
42 12 10
42 13 16
42 14 1
42 15 9
42 16 9
42 17 15
42 18 16
42 19 1
42 20 2
42 21 1
42 22 17
42 23 14
42 24 6
42 25 3
42 26 7
42 27 6
42 28 7
42 29 16
42 30 11
42 31 17
42 32 1
42 33 12
42 34 13
42 35 10
42 36 8
42 37 13
42 38 1
42 39 1
42 40 5
42 41 3
43 0 9
43 1 6
43 2 13
43 3 17
43 4 10
43 5 5
43 6 9
43 7 10
43 8 4
43 9 10
43 10 13
43 11 17
43 12 13
43 13 10
43 14 13
43 15 9
43 16 7
43 17 12
43 18 13
43 19 10
43 20 10
43 21 5
43 22 6
43 23 16
43 24 13
43 25 16
43 26 3
43 27 17
43 28 5
43 29 11
43 30 10
43 31 16
43 32 2
43 33 8
43 34 7
43 35 5
43 36 10
43 37 2
43 38 14
43 39 10
43 40 3
43 41 8
43 42 15
44 0 7
44 1 15
44 2 1
44 3 12
44 4 17
44 5 10
44 6 6
44 7 10
44 8 13
44 9 2
44 10 10
44 11 8
44 12 14
44 13 11
44 14 9
44 15 4
44 16 8
44 17 2
44 18 11
44 19 17
44 20 13
44 21 15
44 22 7
44 23 4
44 24 15
44 25 15
44 26 14
44 27 4
44 28 17
44 29 2
44 30 4
44 31 12
44 32 16
44 33 12
44 34 2
44 35 3
44 36 3
44 37 14
44 38 9
44 39 12
44 40 1
44 41 5
44 42 3
44 43 5
45 0 4
45 1 12
45 2 5
45 3 11
45 4 5
45 5 7
45 6 17
45 7 7
45 8 3
45 9 7
45 10 17
45 11 3
45 12 4
45 13 14
45 14 17
45 15 1
45 16 9
45 17 16
45 18 11
45 19 15
45 20 13
45 21 15
45 22 13
45 23 9
45 24 11
45 25 17
45 26 12
45 27 14
45 28 10
45 29 15
45 30 9
45 31 3
45 32 12
45 33 5
45 34 17
45 35 12
45 36 4
45 37 7
45 38 6
45 39 3
45 40 14
45 41 7
45 42 8
45 43 11
45 44 14
46 0 13
46 1 16
46 2 1
46 3 8
46 4 1
46 5 14
46 6 2
46 7 15
46 8 9
46 9 17
46 10 8
46 11 2
46 12 6
46 13 7
46 14 3
46 15 8
46 16 17
46 17 10
46 18 9
46 19 9
46 20 7
46 21 8
46 22 8
46 23 2
46 24 11
46 25 17
46 26 11
46 27 12
46 28 6
46 29 15
46 30 9
46 31 15
46 32 15
46 33 16
46 34 14
46 35 1
46 36 12
46 37 8
46 38 17
46 39 5
46 40 8
46 41 3
46 42 8
46 43 15
46 44 6
46 45 8
47 0 2
47 1 13
47 2 1
47 3 17
47 4 11
47 5 13
47 6 3
47 7 8
47 8 15
47 9 13
47 10 4
47 11 2
47 12 16
47 13 4
47 14 4
47 15 2
47 16 14
47 17 14
47 18 13
47 19 10
47 20 11
47 21 9
47 22 11
47 23 14
47 24 9
47 25 3
47 26 7
47 27 1
47 28 9
47 29 9
47 30 2
47 31 1
47 32 1
47 33 14
47 34 16
47 35 14
47 36 2
47 37 13
47 38 13
47 39 2
47 40 16
47 41 3
47 42 11
47 43 13
47 44 7
47 45 8
47 46 2
48 0 3
48 1 16
48 2 7
48 3 16
48 4 10
48 5 16
48 6 2
48 7 2
48 8 1
48 9 11
48 10 17
48 11 14
48 12 16
48 13 15
48 14 11
48 15 4
48 16 4
48 17 11
48 18 4
48 19 2
48 20 6
48 21 12
48 22 17
48 23 16
48 24 14
48 25 10
48 26 14
48 27 9
48 28 7
48 29 7
48 30 4
48 31 13
48 32 2
48 33 15
48 34 13
48 35 15
48 36 5
48 37 3
48 38 11
48 39 1
48 40 5
48 41 5
48 42 12
48 43 10
48 44 1
48 45 8
48 46 7
48 47 8
49 0 9
49 1 15
49 2 2
49 3 16
49 4 11
49 5 15
49 6 7
49 7 13
49 8 12
49 9 7
49 10 11
49 11 3
49 12 12
49 13 17
49 14 5
49 15 8
49 16 8
49 17 9
49 18 8
49 19 2
49 20 8
49 21 4
49 22 4
49 23 3
49 24 13
49 25 10
49 26 15
49 27 11
49 28 6
49 29 15
49 30 3
49 31 3
49 32 10
49 33 9
49 34 5
49 35 11
49 36 3
49 37 10
49 38 6
49 39 17
49 40 9
49 41 3
49 42 6
49 43 4
49 44 13
49 45 10
49 46 10
49 47 9
49 48 4
50 0 6
50 1 2
50 2 9
50 3 15
50 4 8
50 5 10
50 6 5
50 7 1
50 8 13
50 9 13
50 10 8
50 11 17
50 12 11
50 13 5
50 14 4
50 15 2
50 16 14
50 17 6
50 18 11
50 19 10
50 20 11
50 21 2
50 22 5
50 23 14
50 24 9
50 25 8
50 26 6
50 27 8
50 28 9
50 29 2
50 30 15
50 31 17
50 32 5
50 33 15
50 34 7
50 35 17
50 36 14
50 37 6
50 38 2
50 39 1
50 40 16
50 41 12
50 42 2
50 43 3
50 44 5
50 45 12
50 46 9
50 47 16
50 48 1
50 49 15
51 0 8
51 1 3
51 2 13
51 3 10
51 4 3
51 5 6
51 6 13
51 7 8
51 8 16
51 9 5
51 10 11
51 11 7
51 12 1
51 13 6
51 14 17
51 15 3
51 16 11
51 17 10
51 18 16
51 19 17
51 20 17
51 21 9
51 22 6
51 23 17
51 24 8
51 25 12
51 26 12
51 27 10
51 28 10
51 29 9
51 30 7
51 31 10
51 32 5
51 33 13
51 34 16
51 35 14
51 36 6
51 37 16
51 38 3
51 39 1
51 40 12
51 41 16
51 42 5
51 43 10
51 44 7
51 45 11
51 46 17
51 47 10
51 48 14
51 49 9
51 50 11
52 0 2
52 1 8
52 2 12
52 3 7
52 4 3
52 5 3
52 6 12
52 7 14
52 8 14
52 9 8
52 10 11
52 11 8
52 12 7
52 13 10
52 14 2
52 15 3
52 16 2
52 17 14
52 18 12
52 19 1
52 20 5
52 21 5
52 22 1
52 23 10
52 24 6
52 25 2
52 26 8
52 27 15
52 28 1
52 29 9
52 30 2
52 31 10
52 32 10
52 33 14
52 34 17
52 35 2
52 36 5
52 37 1
52 38 3
52 39 7
52 40 3
52 41 3
52 42 14
52 43 15
52 44 14
52 45 14
52 46 16
52 47 4
52 48 16
52 49 16
52 50 7
52 51 3
